NAME : TA-Prioritized.4311.tour
COMMENT : Length = 4311
COMMENT : Found by LKH-3 [Keld Helsgaun] Tue Feb 13 20:15:57 2024
TYPE : TOUR
DIMENSION : 106
TOUR_SECTION
1
15
54
96
46
66
65
19
51
56
97
92
75
52
60
9
105
17
101
95
85
14
26
10
67
22
59
42
88
100
89
27
2
18
28
61
62
64
55
37
23
81
91
34
74
24
93
4
16
39
47
3
13
53
69
87
82
5
11
41
78
84
25
90
20
30
104
77
70
98
99
31
29
21
86
38
8
6
12
32
43
94
79
57
76
49
103
48
45
102
58
83
72
33
71
36
80
7
106
68
63
44
50
35
73
40
-1
EOF
